original problem has 20000 variables (20000 bin, 0 int, 0 impl, 0 cont) and 60000 constraints
feasible solution found by zeroobj heuristic after 0.3 seconds, objective value 2.278835e+02
presolving:
(round 1, fast)       508 del vars, 1108 del conss, 0 add conss, 300 chg bounds, 0 chg sides, 0 chg coeffs, 0 upgd conss, 0 impls, 59785 clqs
(round 2, fast)       1021 del vars, 1870 del conss, 0 add conss, 300 chg bounds, 0 chg sides, 0 chg coeffs, 0 upgd conss, 0 impls, 59323 clqs
(round 3, fast)       1115 del vars, 2464 del conss, 0 add conss, 300 chg bounds, 0 chg sides, 0 chg coeffs, 0 upgd conss, 0 impls, 58729 clqs
(round 4, exhaustive) 1125 del vars, 2501 del conss, 0 add conss, 300 chg bounds, 0 chg sides, 0 chg coeffs, 58700 upgd conss, 0 impls, 58699 clqs
   (0.7s) probing: 51/19473 (0.3%) - 0 fixings, 0 aggregations, 0 implications, 0 bound changes
   (0.7s) probing aborted: 50/50 successive totally useless probings
   (0.7s) symmetry computation started: requiring (bin +, int +, cont +), (fixed: bin -, int -, cont -)
   (0.7s) no symmetry present (symcode time: 0.01)
presolving (5 rounds: 5 fast, 2 medium, 2 exhaustive):
 1127 deleted vars, 2510 deleted constraints, 0 added constraints, 300 tightened bounds, 0 added holes, 0 changed sides, 0 changed coefficients
 0 implications, 58690 cliques
presolved problem has 19473 variables (19473 bin, 0 int, 0 impl, 0 cont) and 58691 constraints
      1 constraints of type <knapsack>
  58690 constraints of type <setppc>
Presolving Time: 0.69

 time | node  | left  |LP iter|LP it/n|mem/heur|mdpt |vars |cons |rows |cuts |sepa|confs|strbr|  dualbound   | primalbound  |  gap   | compl. 
p 2.3s|     1 |     0 |     0 |     - |  clique|   0 |  19k|  58k|  58k|   0 |  0 |   0 |   0 | 9.869447e+03 | 3.754847e+03 | 162.85%| unknown
  9.9s|     1 |     0 | 27226 |     - |   248M |   0 |  19k|  58k|  58k|   0 |  0 |   0 |   0 | 5.061908e+03 | 3.754847e+03 |  34.81%| unknown

SCIP Status        : solving was interrupted [time limit reached]
Solving Time (sec) : 13.46
Solving Nodes      : 1
Primal Bound       : +3.75484705718406e+03 (3 solutions)
Dual Bound         : +5.06190815288983e+03
Gap                : 34.81 %
